
Gurobi 9.1.2 (linux64) logging started Wed Jun 30 11:28:26 2021


Gurobi 9.1.2 (linux64) logging started Wed Jun 30 11:28:29 2021

Gurobi Optimizer version 9.1.2 build v9.1.2rc0 (linux64)
Thread count: 40 physical cores, 40 logical processors, using up to 32 threads
Optimize a model with 64962 rows, 25295 columns and 186663 nonzeros
Model fingerprint: 0xf5d5ff16
Coefficient statistics:
  Matrix range     [3e-04, 1e+01]
  Objective range  [4e+01, 4e+05]
  Bounds range     [1e+03, 8e+06]
  RHS range        [6e+00, 1e+09]
Presolve removed 5139 rows and 18150 columns
Presolve time: 0.10s
Presolved: 20156 rows, 46812 columns, 149325 nonzeros
Ordering time: 2.28s

Barrier statistics:
 Dense cols : 2
 Free vars  : 2680
 AA' NZ     : 2.066e+05
 Factor NZ  : 1.475e+06 (roughly 40 MBytes of memory)
 Factor Ops : 2.105e+08 (less than 1 second per iteration)
 Threads    : 32

                  Objective                Residual
Iter       Primal          Dual         Primal    Dual     Compl     Time
   0  -1.02275627e+16  6.85030849e+13  3.43e+07 7.13e+07  2.45e+13     4s
   1  -3.18389821e+15  3.35661269e+15  7.64e+06 8.50e+07  5.76e+12     5s
   2  -1.51565685e+15  4.72114667e+15  2.83e+06 2.69e+07  2.12e+12     6s
   3  -6.74303537e+14  4.80365330e+15  1.21e+06 7.85e+06  8.69e+11     7s
   4  -2.83197301e+14  4.03364553e+15  3.33e+05 2.89e+06  2.88e+11     8s
   5  -1.58531013e+14  2.52943072e+15  1.06e+05 9.02e+05  1.03e+11     9s
   6  -8.99713034e+13  1.18765984e+15  2.73e+04 2.54e+05  3.26e+10    10s
   7  -4.16963078e+13  4.85819659e+14  6.23e+03 7.55e+04  1.09e+10    10s
   8  -7.19877108e+12  1.03974659e+14  3.24e+02 1.32e+04  2.05e+09    11s
   9  -2.48618469e+12  2.92689030e+13  4.85e+01 3.34e+03  5.68e+08    12s
  10  -1.26617625e+12  9.92515647e+12  2.42e+01 9.68e+02  1.96e+08    14s
  11  -1.23906522e+12  7.29109245e+12  2.36e+01 7.20e+02  1.49e+08    15s
  12  -4.77218352e+11  2.96148044e+12  8.15e+00 2.73e+02  5.89e+07    16s
  13  -2.32717471e+11  1.33795151e+12  4.01e+00 1.15e+02  2.67e+07    17s
  14  -1.28562294e+11  7.90257311e+11  2.38e+00 6.48e+01  1.55e+07    18s
  15  -2.04485366e+10  2.99285784e+11  7.22e-01 2.03e+01  5.38e+06    18s
  16   2.24291687e+10  1.79039067e+11  2.96e-01 9.96e+00  2.63e+06    20s
  17   3.39500203e+10  1.53028315e+11  2.07e-01 7.77e+00  2.00e+06    21s
  18   4.61970779e+10  1.03600791e+11  1.24e-01 3.28e+00  9.62e+05    22s
  19   5.22174852e+10  8.68937928e+10  8.44e-02 1.78e+00  5.81e+05    23s
  20   5.60494699e+10  8.07417686e+10  5.87e-02 1.26e+00  4.14e+05    24s
  21   5.83725917e+10  7.55857956e+10  4.21e-02 8.47e-01  2.88e+05    25s
  22   6.04137699e+10  7.18060049e+10  2.76e-02 5.47e-01  1.91e+05    26s
  23   6.09510064e+10  7.04104497e+10  2.39e-02 4.40e-01  1.59e+05    27s
  24   6.16459912e+10  6.94246458e+10  1.88e-02 3.64e-01  1.30e+05    28s
  25   6.22577804e+10  6.80203425e+10  1.44e-02 2.73e-01  9.66e+04    29s
  26   6.29720270e+10  6.67004618e+10  9.57e-03 2.30e-01  6.25e+04    30s
  27   6.31893714e+10  6.63191777e+10  8.12e-03 2.09e-01  5.25e+04    31s
  28   6.36051500e+10  6.58041923e+10  5.28e-03 1.71e-01  3.69e+04    32s
  29   6.38721798e+10  6.54217164e+10  3.44e-03 1.42e-01  2.60e+04    33s
  30   6.40464593e+10  6.51792056e+10  2.24e-03 1.15e-01  1.90e+04    34s
  31   6.41978172e+10  6.48406702e+10  1.22e-03 8.55e-02  1.08e+04    35s
  32   6.42731425e+10  6.46709958e+10  7.05e-04 7.31e-02  6.69e+03    36s
  33   6.42890319e+10  6.46342246e+10  6.04e-04 7.13e-02  5.81e+03    37s
  34   6.43173776e+10  6.45901589e+10  4.24e-04 6.88e-02  4.59e+03    38s
  35   6.43337411e+10  6.45175578e+10  3.20e-04 6.59e-02  3.10e+03    39s
  36   6.43456064e+10  6.44822878e+10  2.40e-04 6.42e-02  2.31e+03    40s
  37   6.43513744e+10  6.44555076e+10  2.05e-04 6.50e-02  1.76e+03    41s
  38   6.43594972e+10  6.44421432e+10  1.53e-04 6.50e-02  1.40e+03    42s
  39   6.43648357e+10  6.44292810e+10  1.18e-04 6.70e-02  1.09e+03    44s
  40   6.43710195e+10  6.44171030e+10  7.76e-05 6.87e-02  7.85e+02    46s
  41   6.43748903e+10  6.44073666e+10  5.29e-05 6.91e-02  5.56e+02    49s
  42   6.43775101e+10  6.43954823e+10  3.56e-05 6.80e-02  3.11e+02    51s
  43   6.43802384e+10  6.43931648e+10  1.87e-05 6.81e-02  2.27e+02    53s
  44   6.43809066e+10  6.43887236e+10  1.41e-05 6.28e-02  1.40e+02    55s
  45   6.43817497e+10  6.43861030e+10  1.39e-04 3.32e-02  7.90e+01    58s
  46   6.43826482e+10  6.43849578e+10  5.01e-05 4.24e-02  4.58e+01    62s
  47   6.43830182e+10  6.43840459e+10  3.19e-05 3.68e-02  2.38e+01    66s
  48   6.43831751e+10  6.43828749e+10  1.73e-04 3.51e-02  1.38e+00    69s
  49   6.43831894e+10  6.43828669e+10  2.77e-02 3.28e-02  8.64e-01    71s
  50   6.43831941e+10  6.43828592e+10  2.53e-02 3.61e-02  6.26e-01    74s
  51   6.43831941e+10  6.43828592e+10  2.53e-02 3.61e-02  6.26e-01    76s
  52   6.43831941e+10  6.43828592e+10  2.53e-02 3.61e-02  6.26e-01    77s
  53   6.43831941e+10  6.43828592e+10  2.53e-02 3.61e-02  6.25e-01    79s
  54   6.43831941e+10  6.43828592e+10  2.53e-02 3.61e-02  6.25e-01    81s
  55   6.43831941e+10  6.43828592e+10  2.53e-02 3.61e-02  6.25e-01    83s
  56   6.43831941e+10  6.43828592e+10  2.53e-02 3.61e-02  6.25e-01    85s
  57   6.43831941e+10  6.43828592e+10  2.53e-02 3.61e-02  6.25e-01    86s
  58   6.43831941e+10  6.43828592e+10  2.53e-02 3.61e-02  6.25e-01    88s
  59   6.43831941e+10  6.43828592e+10  2.53e-02 3.61e-02  6.25e-01    89s
  60   6.43831941e+10  6.43828592e+10  2.53e-02 3.61e-02  6.25e-01    91s

Barrier performed 60 iterations in 91.21 seconds
Sub-optimal termination - objective 6.43831751e+10


User-callback calls 2073, time in user-callback 0.01 sec

Gurobi 9.1.2 (linux64) logging started Tue Jul  6 20:17:22 2021


Gurobi 9.1.2 (linux64) logging started Tue Jul  6 20:17:25 2021

Gurobi Optimizer version 9.1.2 build v9.1.2rc0 (linux64)
Thread count: 28 physical cores, 28 logical processors, using up to 28 threads
Optimize a model with 59682 rows, 25295 columns and 180047 nonzeros
Model fingerprint: 0xa3fb3d9d
Coefficient statistics:
  Matrix range     [3e-04, 1e+01]
  Objective range  [4e+01, 4e+05]
  Bounds range     [1e+03, 8e+06]
  RHS range        [6e+00, 3e+07]

Concurrent LP optimizer: primal simplex, dual simplex, and barrier
Showing barrier log only...

Presolve removed 18115 rows and 6385 columns
Presolve removed 7604 rows and 15362 columns
Presolve time: 0.65s
Presolved: 17691 rows, 44320 columns, 156050 nonzeros

Ordering time: 2.68s

Barrier statistics:
 Dense cols : 2
 Free vars  : 312
 AA' NZ     : 1.961e+05
 Factor NZ  : 1.442e+06 (roughly 40 MBytes of memory)
 Factor Ops : 2.128e+08 (less than 1 second per iteration)
 Threads    : 26

                  Objective                Residual
Iter       Primal          Dual         Primal    Dual     Compl     Time
   0  -4.00841684e+14 -3.54487666e+12  2.46e+07 4.96e+06  4.81e+12     4s
   1  -1.51136074e+14  9.13200171e+14  8.33e+06 2.69e+07  1.57e+12     5s
   2  -6.59507053e+13  1.19301884e+15  2.26e+06 9.79e+06  4.81e+11     6s
   3  -6.89744247e+13  1.17979647e+15  8.49e+05 3.69e+06  1.92e+11     7s
   4  -9.63599554e+13  9.95472679e+14  2.94e+05 1.56e+06  7.78e+10     8s
   5  -8.14886486e+13  6.25913571e+14  7.17e+04 4.50e+05  2.46e+10     8s
   6  -3.51775772e+13  2.15664362e+14  1.30e+04 9.52e+04  5.81e+09     9s
   7  -6.30604683e+12  6.88987224e+13  1.29e+03 2.66e+04  1.48e+09    10s
   8  -2.34435011e+12  2.07742425e+13  3.75e+02 7.33e+03  4.35e+08    11s
   9  -1.88761780e+12  5.73534559e+12  3.20e+02 1.42e+03  1.38e+08    12s
  10  -4.20733941e+11  2.07342018e+12  4.58e+01 4.33e+02  4.35e+07    13s
  11  -1.71599244e+11  6.80237327e+11  1.84e+01 1.27e+02  1.47e+07    13s
  12  -5.51316098e+10  3.27095015e+11  7.34e+00 5.49e+01  6.58e+06    14s
  13   7.64623687e+08  2.21159233e+11  3.23e+00 3.38e+01  3.79e+06    15s
  14   1.98769182e+10  1.58535833e+11  2.14e+00 2.03e+01  2.38e+06    16s
  15   4.01034691e+10  1.16328766e+11  1.14e+00 1.03e+01  1.31e+06    16s
  16   5.02804412e+10  9.63113357e+10  6.70e-01 6.10e+00  7.90e+05    17s
  17   5.42070061e+10  8.64152709e+10  4.80e-01 4.14e+00  5.53e+05    18s
  18   5.75869500e+10  8.19801605e+10  3.18e-01 3.29e+00  4.19e+05    19s
  19   5.89151911e+10  7.62969605e+10  2.50e-01 2.25e+00  2.98e+05    20s
  20   6.10493092e+10  7.16545790e+10  1.49e-01 1.33e+00  1.82e+05    21s
  21   6.19045311e+10  7.03121700e+10  1.07e-01 1.08e+00  1.45e+05    22s
  22   6.20564444e+10  6.84686062e+10  1.01e-01 7.32e-01  1.10e+05    23s
  23   6.30484368e+10  6.78911883e+10  5.55e-02 6.25e-01  8.33e+04    24s
  24   6.35394469e+10  6.69680308e+10  3.48e-02 4.54e-01  5.90e+04    24s
  25   6.35765920e+10  6.63889522e+10  3.29e-02 3.52e-01  4.84e+04    25s
  26   6.37555477e+10  6.62465878e+10  2.58e-02 3.25e-01  4.29e+04    26s
  27   6.39167989e+10  6.56511725e+10  1.93e-02 2.31e-01  2.99e+04    27s
  28   6.40426410e+10  6.54957570e+10  1.42e-02 2.17e-01  2.50e+04    28s
  29   6.40930459e+10  6.52683900e+10  1.20e-02 1.97e-01  2.02e+04    29s
  30   6.41720010e+10  6.49006338e+10  8.68e-03 1.51e-01  1.25e+04    30s
  31   6.42315571e+10  6.47474029e+10  6.22e-03 1.65e-01  8.89e+03    30s
  32   6.42807745e+10  6.46363244e+10  4.18e-03 1.73e-01  6.13e+03    31s
  33   6.42876573e+10  6.46129838e+10  3.91e-03 1.74e-01  5.61e+03    32s
  34   6.43006539e+10  6.45936357e+10  3.40e-03 1.75e-01  5.05e+03    33s
  35   6.43365452e+10  6.45392107e+10  1.96e-03 1.78e-01  3.50e+03    34s
  36   6.43502223e+10  6.45160423e+10  1.36e-03 1.77e-01  2.87e+03    35s
  37   6.43614453e+10  6.44793415e+10  8.98e-04 1.78e-01  2.05e+03    36s
  38   6.43652207e+10  6.44489160e+10  7.40e-04 1.75e-01  1.46e+03    37s
  39   6.43693439e+10  6.44298271e+10  5.61e-04 1.67e-01  1.05e+03    37s
  40   6.43754212e+10  6.44192786e+10  3.13e-04 1.52e-01  7.66e+02    38s
  41   6.43782851e+10  6.44035646e+10  1.87e-04 1.01e-01  4.43e+02    39s
  42   6.43814047e+10  6.43960949e+10  6.23e-05 9.59e-02  2.61e+02    41s
  43   6.43816148e+10  6.43914332e+10  5.49e-05 8.78e-02  1.76e+02    43s
  44   6.43822333e+10  6.43876305e+10  3.95e-05 8.11e-02  9.97e+01    44s
  45   6.43827459e+10  6.43860190e+10  1.59e-05 7.80e-02  6.22e+01    46s
  46   6.43828614e+10  6.43854283e+10  1.20e-05 7.85e-02  5.01e+01    48s
  47   6.43831493e+10  6.43843881e+10  2.01e-04 7.75e-02  2.76e+01    50s
  48   6.43831902e+10  6.43836864e+10  1.53e-04 7.71e-02  1.48e+01    51s
  49   6.43832627e+10  6.43830715e+10  8.00e-05 7.66e-02  2.95e+00    52s
  50   6.43832935e+10  6.43829253e+10  1.12e-04 7.66e-02  5.84e-03    53s
  51   6.43832936e+10  6.43829253e+10  1.30e-04 7.66e-02  5.84e-03    54s

Barrier solved model in 51 iterations and 53.73 seconds
Optimal objective 6.43832936e+10

Crossover log...

    7253 DPushes remaining with DInf 0.0000000e+00                54s
    2381 DPushes remaining with DInf 0.0000000e+00                55s
       0 DPushes remaining with DInf 0.0000000e+00                59s

   33346 PPushes remaining with PInf 1.5957790e-02                59s
   10928 PPushes remaining with PInf 1.6582285e-02                61s
       0 PPushes remaining with PInf 2.0215550e+06                62s

Restart crossover...


    7253 DPushes remaining with DInf 0.0000000e+00                62s
       0 DPushes remaining with DInf 0.0000000e+00                63s

   33346 PPushes remaining with PInf 8.2433778e-03                63s
       0 PPushes remaining with PInf 8.0046403e+05                63s

  Push phase complete: Pinf 8.0046403e+05, Dinf 6.3525916e+05     63s

Iteration    Objective       Primal Inf.    Dual Inf.      Time
   39818    6.4383636e+10   0.000000e+00   6.352592e+05     63s
   41511    6.4344622e+10   2.850536e+04   1.519390e+10     66s
   42361    6.3466256e+10   1.069425e+04   8.706749e+11     70s
   43277    6.3921424e+10   0.000000e+00   7.547804e+09     75s
   45410    6.4413847e+10   0.000000e+00   5.945077e+05     80s
Extra simplex iterations after uncrush: 4637
   45812    6.4422536e+10   0.000000e+00   0.000000e+00     81s

Solved with barrier
Solved in 45812 iterations and 81.13 seconds
Optimal objective  6.442253632e+10

User-callback calls 88705, time in user-callback 0.07 sec
